Traveling Salesman Problem/TSP_generados/Aleatorio1621103344_11.tsp
NAME: Aleatorio1621103344_11.tsp
COMMENT: Randomly generated scenario
TYPE: TSP
DIMENSION: 11
EDGE_WEIGHT_TYPE: ATT
NODE_COORD_SECTION
1 6.97 43.75
2 19.3 3.88
3 29.85 18.53
4 21.71 4.5
5 49.11 15.57
6 9.35 1.06
7 32.54 25.53
8 30.2 5.46
9 28.69 17.23
10 17.79 33.6
11 33.52 12.38
