Traveling Salesman Problem/TSP_generados/Aleatorio1621103344_11.opt.tour
NAME: Aleatorio1621103344_11.opt.tour
COMMENT: Optimal solution for Aleatorio1621103344_11 (149.09663394762387)
TYPE: TOUR
DIMENSION: 11
TOUR_SECTION
1 6 2 4 8 11 5 9 3 7 10
-1
EOF
